p cnf 13 49
-1 -4 -11 0
6 7 -13 0
-1 -6 13 0
-6 9 10 0
3 -8 9 0
-7 -8 13 0
-5 8 12 0
-1 11 -13 0
-3 -9 13 0
-3 -11 12 0
-2 -3 4 0
-1 -9 10 0
-3 -7 -11 0
-2 3 12 0
2 9 -12 0
4 10 -12 0
4 -5 -8 0
9 -12 13 0
5 -9 13 0
-5 8 -9 0
-1 -3 -4 0
7 -10 11 0
-5 7 12 0
3 9 10 0
11 -12 13 0
-2 -5 9 0
2 -8 -12 0
-1 3 5 0
4 8 -13 0
6 10 11 0
-1 -5 8 0
2 3 -11 0
-1 -2 -10 0
3 -5 -11 0
-1 3 -9 0
7 -11 13 0
4 -7 8 0
-4 -6 12 0
4 7 -11 0
-1 2 -10 0
-4 -11 12 0
-1 9 13 0
2 3 9 0
-1 -3 -9 0
2 8 -11 0
5 11 -13 0
-4 7 13 0
-3 6 -9 0
1 4 -9 0
